p cnf 421 1427
c p weight -167 1 0
c p weight 167 -1 0
c p weight 171 6.12323399573676603586882014729198302312846062338790031898128063403419218957424163818359375E-17 0
c p weight -171 1 0
c p weight 172 1 0
c p weight -172 1 0
c p weight -169 1 0
c p weight 169 -1 0
c p weight -173 1 0
c p weight 173 -1 0
c p weight -175 1 0
c p weight 175 -1 0
c p weight -178 1 0
c p weight 178 -1 0
c p weight -181 1 0
c p weight 181 -1 0
c p weight -184 1 0
c p weight 184 -1 0
c p weight -187 1 0
c p weight 187 -1 0
c p weight -190 1 0
c p weight 190 -1 0
c p weight -193 1 0
c p weight 193 -1 0
c p weight -196 1 0
c p weight 196 -1 0
c p weight -199 1 0
c p weight 199 -1 0
c p weight -202 1 0
c p weight 202 -1 0
c p weight -205 1 0
c p weight 205 -1 0
c p weight -208 1 0
c p weight 208 -1 0
c p weight -211 1 0
c p weight 211 -1 0
c p weight -214 1 0
c p weight 214 -1 0
c p weight -217 1 0
c p weight 217 -1 0
c p weight -220 1 0
c p weight 220 -1 0
c p weight -223 1 0
c p weight 223 -1 0
c p weight -226 1 0
c p weight 226 -1 0
c p weight -229 1 0
c p weight 229 -1 0
c p weight -232 1 0
c p weight 232 -1 0
c p weight -235 1 0
c p weight 235 -1 0
c p weight -238 1 0
c p weight 238 -1 0
c p weight -241 1 0
c p weight 241 -1 0
c p weight -244 1 0
c p weight 244 -1 0
c p weight -247 1 0
c p weight 247 -1 0
c p weight -250 1 0
c p weight 250 -1 0
c p weight -253 1 0
c p weight 253 -1 0
c p weight -256 1 0
c p weight 256 -1 0
c p weight -259 1 0
c p weight 259 -1 0
c p weight -262 1 0
c p weight 262 -1 0
c p weight -265 1 0
c p weight 265 -1 0
c p weight -268 1 0
c p weight 268 -1 0
c p weight -271 1 0
c p weight 271 -1 0
c p weight -274 1 0
c p weight 274 -1 0
c p weight -277 1 0
c p weight 277 -1 0
c p weight -280 1 0
c p weight 280 -1 0
c p weight -283 1 0
c p weight 283 -1 0
c p weight -286 1 0
c p weight 286 -1 0
c p weight -289 1 0
c p weight 289 -1 0
c p weight -292 1 0
c p weight 292 -1 0
c p weight -295 1 0
c p weight 295 -1 0
c p weight -298 1 0
c p weight 298 -1 0
c p weight -301 1 0
c p weight 301 -1 0
c p weight -304 1 0
c p weight 304 -1 0
c p weight -307 1 0
c p weight 307 -1 0
c p weight -310 1 0
c p weight 310 -1 0
c p weight -313 1 0
c p weight 313 -1 0
c p weight -316 1 0
c p weight 316 -1 0
c p weight -319 1 0
c p weight 319 -1 0
c p weight -322 1 0
c p weight 322 -1 0
c p weight -325 1 0
c p weight 325 -1 0
c p weight -328 1 0
c p weight 328 -1 0
c p weight -331 1 0
c p weight 331 -1 0
c p weight -334 1 0
c p weight 334 -1 0
c p weight -337 1 0
c p weight 337 -1 0
c p weight -340 1 0
c p weight 340 -1 0
c p weight -343 1 0
c p weight 343 -1 0
c p weight -346 1 0
c p weight 346 -1 0
c p weight -349 1 0
c p weight 349 -1 0
c p weight -352 1 0
c p weight 352 -1 0
c p weight -355 1 0
c p weight 355 -1 0
c p weight -358 1 0
c p weight 358 -1 0
c p weight -361 1 0
c p weight 361 -1 0
c p weight -364 1 0
c p weight 364 -1 0
c p weight -367 1 0
c p weight 367 -1 0
c p weight -370 1 0
c p weight 370 -1 0
c p weight -373 1 0
c p weight 373 -1 0
c p weight -376 1 0
c p weight 376 -1 0
c p weight -379 1 0
c p weight 379 -1 0
c p weight -382 1 0
c p weight 382 -1 0
c p weight -385 1 0
c p weight 385 -1 0
c p weight -388 1 0
c p weight 388 -1 0
c p weight -391 1 0
c p weight 391 -1 0
c p weight -394 1 0
c p weight 394 -1 0
c p weight -397 1 0
c p weight 397 -1 0
c p weight -400 1 0
c p weight 400 -1 0
c p weight -403 1 0
c p weight 403 -1 0
c p weight -406 1 0
c p weight 406 -1 0
c p weight -409 1 0
c p weight 409 -1 0
c p weight -412 1 0
c p weight 412 -1 0
c p weight -415 1 0
c p weight 415 -1 0
c p weight -418 1 0
c p weight 418 -1 0
c p weight 421 0.5 0
c p weight -421 1 0
421 0
-165 0
-163 0
-161 0
-159 0
-157 0
-155 0
-153 0
-151 0
-149 0
-147 0
-145 0
-143 0
-141 0
-139 0
-137 0
-135 0
-133 0
-131 0
-129 0
-127 0
-125 0
-123 0
-121 0
-119 0
-117 0
-115 0
-113 0
-111 0
-109 0
-107 0
-105 0
-103 0
-101 0
-99 0
-97 0
-95 0
-93 0
-91 0
-89 0
-87 0
-85 0
-83 0
-81 0
-79 0
-77 0
-75 0
-73 0
-71 0
-69 0
-67 0
-65 0
-63 0
-61 0
-59 0
-57 0
-55 0
-53 0
-51 0
-49 0
-47 0
-45 0
-43 0
-41 0
-39 0
-37 0
-35 0
-33 0
-31 0
-29 0
-27 0
-25 0
-23 0
-21 0
-19 0
-17 0
-15 0
-13 0
-11 0
-9 0
-7 0
-5 0
-3 0
-1 0
-167 165 0
-167 166 0
167 -165 -166 0
168 165 -166 0
168 -165 166 0
-168 165 166 0
-168 -165 -166 0
-169 170 0
-169 168 0
-169 -165 0
169 -170 165 -168 0
170 -165 168 0
-170 165 168 0
-171 168 0
170 -171 -165 0
-170 -171 165 0
170 171 165 -168 0
-170 171 -165 -168 0
-172 168 0
170 -172 165 0
-170 -172 -165 0
170 172 -165 -168 0
-170 172 165 -168 0
-173 170 0
-173 168 0
173 -170 -168 0
174 170 -168 0
174 -170 168 0
-174 170 168 0
-174 -170 -168 0
-175 170 0
-175 164 0
-175 163 -174 0
-175 -163 174 0
175 -170 163 174 -164 0
175 -170 -163 -174 -164 0
177 170 -163 0
177 -170 163 0
-177 170 163 0
-177 -170 -163 0
176 174 -164 0
176 -174 164 0
-176 174 164 0
-176 -174 -164 0
-178 177 0
-178 162 0
-178 161 -164 0
-178 -161 164 0
178 -177 161 164 -162 0
178 -177 -161 -164 -162 0
180 177 -161 0
180 -177 161 0
-180 177 161 0
-180 -177 -161 0
179 164 -162 0
179 -164 162 0
-179 164 162 0
-179 -164 -162 0
-181 180 0
-181 160 0
-181 159 -162 0
-181 -159 162 0
181 -180 159 162 -160 0
181 -180 -159 -162 -160 0
183 180 -159 0
183 -180 159 0
-183 180 159 0
-183 -180 -159 0
182 162 -160 0
182 -162 160 0
-182 162 160 0
-182 -162 -160 0
-184 183 0
-184 158 0
-184 157 -160 0
-184 -157 160 0
184 -183 157 160 -158 0
184 -183 -157 -160 -158 0
186 183 -157 0
186 -183 157 0
-186 183 157 0
-186 -183 -157 0
185 160 -158 0
185 -160 158 0
-185 160 158 0
-185 -160 -158 0
-187 186 0
-187 156 0
-187 155 -158 0
-187 -155 158 0
187 -186 155 158 -156 0
187 -186 -155 -158 -156 0
189 186 -155 0
189 -186 155 0
-189 186 155 0
-189 -186 -155 0
188 158 -156 0
188 -158 156 0
-188 158 156 0
-188 -158 -156 0
-190 189 0
-190 154 0
-190 153 -156 0
-190 -153 156 0
190 -189 153 156 -154 0
190 -189 -153 -156 -154 0
192 189 -153 0
192 -189 153 0
-192 189 153 0
-192 -189 -153 0
191 156 -154 0
191 -156 154 0
-191 156 154 0
-191 -156 -154 0
-193 192 0
-193 152 0
-193 151 -154 0
-193 -151 154 0
193 -192 151 154 -152 0
193 -192 -151 -154 -152 0
195 192 -151 0
195 -192 151 0
-195 192 151 0
-195 -192 -151 0
194 154 -152 0
194 -154 152 0
-194 154 152 0
-194 -154 -152 0
-196 195 0
-196 150 0
-196 149 -152 0
-196 -149 152 0
196 -195 149 152 -150 0
196 -195 -149 -152 -150 0
198 195 -149 0
198 -195 149 0
-198 195 149 0
-198 -195 -149 0
197 152 -150 0
197 -152 150 0
-197 152 150 0
-197 -152 -150 0
-199 198 0
-199 148 0
-199 147 -150 0
-199 -147 150 0
199 -198 147 150 -148 0
199 -198 -147 -150 -148 0
201 198 -147 0
201 -198 147 0
-201 198 147 0
-201 -198 -147 0
200 150 -148 0
200 -150 148 0
-200 150 148 0
-200 -150 -148 0
-202 201 0
-202 146 0
-202 145 -148 0
-202 -145 148 0
202 -201 145 148 -146 0
202 -201 -145 -148 -146 0
204 201 -145 0
204 -201 145 0
-204 201 145 0
-204 -201 -145 0
203 148 -146 0
203 -148 146 0
-203 148 146 0
-203 -148 -146 0
-205 204 0
-205 144 0
-205 143 -146 0
-205 -143 146 0
205 -204 143 146 -144 0
205 -204 -143 -146 -144 0
207 204 -143 0
207 -204 143 0
-207 204 143 0
-207 -204 -143 0
206 146 -144 0
206 -146 144 0
-206 146 144 0
-206 -146 -144 0
-208 207 0
-208 142 0
-208 141 -144 0
-208 -141 144 0
208 -207 141 144 -142 0
208 -207 -141 -144 -142 0
210 207 -141 0
210 -207 141 0
-210 207 141 0
-210 -207 -141 0
209 144 -142 0
209 -144 142 0
-209 144 142 0
-209 -144 -142 0
-211 210 0
-211 140 0
-211 139 -142 0
-211 -139 142 0
211 -210 139 142 -140 0
211 -210 -139 -142 -140 0
213 210 -139 0
213 -210 139 0
-213 210 139 0
-213 -210 -139 0
212 142 -140 0
212 -142 140 0
-212 142 140 0
-212 -142 -140 0
-214 213 0
-214 138 0
-214 137 -140 0
-214 -137 140 0
214 -213 137 140 -138 0
214 -213 -137 -140 -138 0
216 213 -137 0
216 -213 137 0
-216 213 137 0
-216 -213 -137 0
215 140 -138 0
215 -140 138 0
-215 140 138 0
-215 -140 -138 0
-217 216 0
-217 136 0
-217 135 -138 0
-217 -135 138 0
217 -216 135 138 -136 0
217 -216 -135 -138 -136 0
219 216 -135 0
219 -216 135 0
-219 216 135 0
-219 -216 -135 0
218 138 -136 0
218 -138 136 0
-218 138 136 0
-218 -138 -136 0
-220 219 0
-220 134 0
-220 133 -136 0
-220 -133 136 0
220 -219 133 136 -134 0
220 -219 -133 -136 -134 0
222 219 -133 0
222 -219 133 0
-222 219 133 0
-222 -219 -133 0
221 136 -134 0
221 -136 134 0
-221 136 134 0
-221 -136 -134 0
-223 222 0
-223 132 0
-223 131 -134 0
-223 -131 134 0
223 -222 131 134 -132 0
223 -222 -131 -134 -132 0
225 222 -131 0
225 -222 131 0
-225 222 131 0
-225 -222 -131 0
224 134 -132 0
224 -134 132 0
-224 134 132 0
-224 -134 -132 0
-226 225 0
-226 130 0
-226 129 -132 0
-226 -129 132 0
226 -225 129 132 -130 0
226 -225 -129 -132 -130 0
228 225 -129 0
228 -225 129 0
-228 225 129 0
-228 -225 -129 0
227 132 -130 0
227 -132 130 0
-227 132 130 0
-227 -132 -130 0
-229 228 0
-229 128 0
-229 127 -130 0
-229 -127 130 0
229 -228 127 130 -128 0
229 -228 -127 -130 -128 0
231 228 -127 0
231 -228 127 0
-231 228 127 0
-231 -228 -127 0
230 130 -128 0
230 -130 128 0
-230 130 128 0
-230 -130 -128 0
-232 231 0
-232 126 0
-232 125 -128 0
-232 -125 128 0
232 -231 125 128 -126 0
232 -231 -125 -128 -126 0
234 231 -125 0
234 -231 125 0
-234 231 125 0
-234 -231 -125 0
233 128 -126 0
233 -128 126 0
-233 128 126 0
-233 -128 -126 0
-235 234 0
-235 124 0
-235 123 -126 0
-235 -123 126 0
235 -234 123 126 -124 0
235 -234 -123 -126 -124 0
237 234 -123 0
237 -234 123 0
-237 234 123 0
-237 -234 -123 0
236 126 -124 0
236 -126 124 0
-236 126 124 0
-236 -126 -124 0
-238 237 0
-238 122 0
-238 121 -124 0
-238 -121 124 0
238 -237 121 124 -122 0
238 -237 -121 -124 -122 0
240 237 -121 0
240 -237 121 0
-240 237 121 0
-240 -237 -121 0
239 124 -122 0
239 -124 122 0
-239 124 122 0
-239 -124 -122 0
-241 240 0
-241 120 0
-241 119 -122 0
-241 -119 122 0
241 -240 119 122 -120 0
241 -240 -119 -122 -120 0
243 240 -119 0
243 -240 119 0
-243 240 119 0
-243 -240 -119 0
242 122 -120 0
242 -122 120 0
-242 122 120 0
-242 -122 -120 0
-244 243 0
-244 118 0
-244 117 -120 0
-244 -117 120 0
244 -243 117 120 -118 0
244 -243 -117 -120 -118 0
246 243 -117 0
246 -243 117 0
-246 243 117 0
-246 -243 -117 0
245 120 -118 0
245 -120 118 0
-245 120 118 0
-245 -120 -118 0
-247 246 0
-247 116 0
-247 115 -118 0
-247 -115 118 0
247 -246 115 118 -116 0
247 -246 -115 -118 -116 0
249 246 -115 0
249 -246 115 0
-249 246 115 0
-249 -246 -115 0
248 118 -116 0
248 -118 116 0
-248 118 116 0
-248 -118 -116 0
-250 249 0
-250 114 0
-250 113 -116 0
-250 -113 116 0
250 -249 113 116 -114 0
250 -249 -113 -116 -114 0
252 249 -113 0
252 -249 113 0
-252 249 113 0
-252 -249 -113 0
251 116 -114 0
251 -116 114 0
-251 116 114 0
-251 -116 -114 0
-253 252 0
-253 112 0
-253 111 -114 0
-253 -111 114 0
253 -252 111 114 -112 0
253 -252 -111 -114 -112 0
255 252 -111 0
255 -252 111 0
-255 252 111 0
-255 -252 -111 0
254 114 -112 0
254 -114 112 0
-254 114 112 0
-254 -114 -112 0
-256 255 0
-256 110 0
-256 109 -112 0
-256 -109 112 0
256 -255 109 112 -110 0
256 -255 -109 -112 -110 0
258 255 -109 0
258 -255 109 0
-258 255 109 0
-258 -255 -109 0
257 112 -110 0
257 -112 110 0
-257 112 110 0
-257 -112 -110 0
-259 258 0
-259 108 0
-259 107 -110 0
-259 -107 110 0
259 -258 107 110 -108 0
259 -258 -107 -110 -108 0
261 258 -107 0
261 -258 107 0
-261 258 107 0
-261 -258 -107 0
260 110 -108 0
260 -110 108 0
-260 110 108 0
-260 -110 -108 0
-262 261 0
-262 106 0
-262 105 -108 0
-262 -105 108 0
262 -261 105 108 -106 0
262 -261 -105 -108 -106 0
264 261 -105 0
264 -261 105 0
-264 261 105 0
-264 -261 -105 0
263 108 -106 0
263 -108 106 0
-263 108 106 0
-263 -108 -106 0
-265 264 0
-265 104 0
-265 103 -106 0
-265 -103 106 0
265 -264 103 106 -104 0
265 -264 -103 -106 -104 0
267 264 -103 0
267 -264 103 0
-267 264 103 0
-267 -264 -103 0
266 106 -104 0
266 -106 104 0
-266 106 104 0
-266 -106 -104 0
-268 267 0
-268 102 0
-268 101 -104 0
-268 -101 104 0
268 -267 101 104 -102 0
268 -267 -101 -104 -102 0
270 267 -101 0
270 -267 101 0
-270 267 101 0
-270 -267 -101 0
269 104 -102 0
269 -104 102 0
-269 104 102 0
-269 -104 -102 0
-271 270 0
-271 100 0
-271 99 -102 0
-271 -99 102 0
271 -270 99 102 -100 0
271 -270 -99 -102 -100 0
273 270 -99 0
273 -270 99 0
-273 270 99 0
-273 -270 -99 0
272 102 -100 0
272 -102 100 0
-272 102 100 0
-272 -102 -100 0
-274 273 0
-274 98 0
-274 97 -100 0
-274 -97 100 0
274 -273 97 100 -98 0
274 -273 -97 -100 -98 0
276 273 -97 0
276 -273 97 0
-276 273 97 0
-276 -273 -97 0
275 100 -98 0
275 -100 98 0
-275 100 98 0
-275 -100 -98 0
-277 276 0
-277 96 0
-277 95 -98 0
-277 -95 98 0
277 -276 95 98 -96 0
277 -276 -95 -98 -96 0
279 276 -95 0
279 -276 95 0
-279 276 95 0
-279 -276 -95 0
278 98 -96 0
278 -98 96 0
-278 98 96 0
-278 -98 -96 0
-280 279 0
-280 94 0
-280 93 -96 0
-280 -93 96 0
280 -279 93 96 -94 0
280 -279 -93 -96 -94 0
282 279 -93 0
282 -279 93 0
-282 279 93 0
-282 -279 -93 0
281 96 -94 0
281 -96 94 0
-281 96 94 0
-281 -96 -94 0
-283 282 0
-283 92 0
-283 91 -94 0
-283 -91 94 0
283 -282 91 94 -92 0
283 -282 -91 -94 -92 0
285 282 -91 0
285 -282 91 0
-285 282 91 0
-285 -282 -91 0
284 94 -92 0
284 -94 92 0
-284 94 92 0
-284 -94 -92 0
-286 285 0
-286 90 0
-286 89 -92 0
-286 -89 92 0
286 -285 89 92 -90 0
286 -285 -89 -92 -90 0
288 285 -89 0
288 -285 89 0
-288 285 89 0
-288 -285 -89 0
287 92 -90 0
287 -92 90 0
-287 92 90 0
-287 -92 -90 0
-289 288 0
-289 88 0
-289 87 -90 0
-289 -87 90 0
289 -288 87 90 -88 0
289 -288 -87 -90 -88 0
291 288 -87 0
291 -288 87 0
-291 288 87 0
-291 -288 -87 0
290 90 -88 0
290 -90 88 0
-290 90 88 0
-290 -90 -88 0
-292 291 0
-292 86 0
-292 85 -88 0
-292 -85 88 0
292 -291 85 88 -86 0
292 -291 -85 -88 -86 0
294 291 -85 0
294 -291 85 0
-294 291 85 0
-294 -291 -85 0
293 88 -86 0
293 -88 86 0
-293 88 86 0
-293 -88 -86 0
-295 294 0
-295 84 0
-295 83 -86 0
-295 -83 86 0
295 -294 83 86 -84 0
295 -294 -83 -86 -84 0
297 294 -83 0
297 -294 83 0
-297 294 83 0
-297 -294 -83 0
296 86 -84 0
296 -86 84 0
-296 86 84 0
-296 -86 -84 0
-298 297 0
-298 82 0
-298 81 -84 0
-298 -81 84 0
298 -297 81 84 -82 0
298 -297 -81 -84 -82 0
300 297 -81 0
300 -297 81 0
-300 297 81 0
-300 -297 -81 0
299 84 -82 0
299 -84 82 0
-299 84 82 0
-299 -84 -82 0
-301 300 0
-301 80 0
-301 79 -82 0
-301 -79 82 0
301 -300 79 82 -80 0
301 -300 -79 -82 -80 0
303 300 -79 0
303 -300 79 0
-303 300 79 0
-303 -300 -79 0
302 82 -80 0
302 -82 80 0
-302 82 80 0
-302 -82 -80 0
-304 303 0
-304 78 0
-304 77 -80 0
-304 -77 80 0
304 -303 77 80 -78 0
304 -303 -77 -80 -78 0
306 303 -77 0
306 -303 77 0
-306 303 77 0
-306 -303 -77 0
305 80 -78 0
305 -80 78 0
-305 80 78 0
-305 -80 -78 0
-307 306 0
-307 76 0
-307 75 -78 0
-307 -75 78 0
307 -306 75 78 -76 0
307 -306 -75 -78 -76 0
309 306 -75 0
309 -306 75 0
-309 306 75 0
-309 -306 -75 0
308 78 -76 0
308 -78 76 0
-308 78 76 0
-308 -78 -76 0
-310 309 0
-310 74 0
-310 73 -76 0
-310 -73 76 0
310 -309 73 76 -74 0
310 -309 -73 -76 -74 0
312 309 -73 0
312 -309 73 0
-312 309 73 0
-312 -309 -73 0
311 76 -74 0
311 -76 74 0
-311 76 74 0
-311 -76 -74 0
-313 312 0
-313 72 0
-313 71 -74 0
-313 -71 74 0
313 -312 71 74 -72 0
313 -312 -71 -74 -72 0
315 312 -71 0
315 -312 71 0
-315 312 71 0
-315 -312 -71 0
314 74 -72 0
314 -74 72 0
-314 74 72 0
-314 -74 -72 0
-316 315 0
-316 70 0
-316 69 -72 0
-316 -69 72 0
316 -315 69 72 -70 0
316 -315 -69 -72 -70 0
318 315 -69 0
318 -315 69 0
-318 315 69 0
-318 -315 -69 0
317 72 -70 0
317 -72 70 0
-317 72 70 0
-317 -72 -70 0
-319 318 0
-319 68 0
-319 67 -70 0
-319 -67 70 0
319 -318 67 70 -68 0
319 -318 -67 -70 -68 0
321 318 -67 0
321 -318 67 0
-321 318 67 0
-321 -318 -67 0
320 70 -68 0
320 -70 68 0
-320 70 68 0
-320 -70 -68 0
-322 321 0
-322 66 0
-322 65 -68 0
-322 -65 68 0
322 -321 65 68 -66 0
322 -321 -65 -68 -66 0
324 321 -65 0
324 -321 65 0
-324 321 65 0
-324 -321 -65 0
323 68 -66 0
323 -68 66 0
-323 68 66 0
-323 -68 -66 0
-325 324 0
-325 64 0
-325 63 -66 0
-325 -63 66 0
325 -324 63 66 -64 0
325 -324 -63 -66 -64 0
327 324 -63 0
327 -324 63 0
-327 324 63 0
-327 -324 -63 0
326 66 -64 0
326 -66 64 0
-326 66 64 0
-326 -66 -64 0
-328 327 0
-328 62 0
-328 61 -64 0
-328 -61 64 0
328 -327 61 64 -62 0
328 -327 -61 -64 -62 0
330 327 -61 0
330 -327 61 0
-330 327 61 0
-330 -327 -61 0
329 64 -62 0
329 -64 62 0
-329 64 62 0
-329 -64 -62 0
-331 330 0
-331 60 0
-331 59 -62 0
-331 -59 62 0
331 -330 59 62 -60 0
331 -330 -59 -62 -60 0
333 330 -59 0
333 -330 59 0
-333 330 59 0
-333 -330 -59 0
332 62 -60 0
332 -62 60 0
-332 62 60 0
-332 -62 -60 0
-334 333 0
-334 58 0
-334 57 -60 0
-334 -57 60 0
334 -333 57 60 -58 0
334 -333 -57 -60 -58 0
336 333 -57 0
336 -333 57 0
-336 333 57 0
-336 -333 -57 0
335 60 -58 0
335 -60 58 0
-335 60 58 0
-335 -60 -58 0
-337 336 0
-337 56 0
-337 55 -58 0
-337 -55 58 0
337 -336 55 58 -56 0
337 -336 -55 -58 -56 0
339 336 -55 0
339 -336 55 0
-339 336 55 0
-339 -336 -55 0
338 58 -56 0
338 -58 56 0
-338 58 56 0
-338 -58 -56 0
-340 339 0
-340 54 0
-340 53 -56 0
-340 -53 56 0
340 -339 53 56 -54 0
340 -339 -53 -56 -54 0
342 339 -53 0
342 -339 53 0
-342 339 53 0
-342 -339 -53 0
341 56 -54 0
341 -56 54 0
-341 56 54 0
-341 -56 -54 0
-343 342 0
-343 52 0
-343 51 -54 0
-343 -51 54 0
343 -342 51 54 -52 0
343 -342 -51 -54 -52 0
345 342 -51 0
345 -342 51 0
-345 342 51 0
-345 -342 -51 0
344 54 -52 0
344 -54 52 0
-344 54 52 0
-344 -54 -52 0
-346 345 0
-346 50 0
-346 49 -52 0
-346 -49 52 0
346 -345 49 52 -50 0
346 -345 -49 -52 -50 0
348 345 -49 0
348 -345 49 0
-348 345 49 0
-348 -345 -49 0
347 52 -50 0
347 -52 50 0
-347 52 50 0
-347 -52 -50 0
-349 348 0
-349 48 0
-349 47 -50 0
-349 -47 50 0
349 -348 47 50 -48 0
349 -348 -47 -50 -48 0
351 348 -47 0
351 -348 47 0
-351 348 47 0
-351 -348 -47 0
350 50 -48 0
350 -50 48 0
-350 50 48 0
-350 -50 -48 0
-352 351 0
-352 46 0
-352 45 -48 0
-352 -45 48 0
352 -351 45 48 -46 0
352 -351 -45 -48 -46 0
354 351 -45 0
354 -351 45 0
-354 351 45 0
-354 -351 -45 0
353 48 -46 0
353 -48 46 0
-353 48 46 0
-353 -48 -46 0
-355 354 0
-355 44 0
-355 43 -46 0
-355 -43 46 0
355 -354 43 46 -44 0
355 -354 -43 -46 -44 0
357 354 -43 0
357 -354 43 0
-357 354 43 0
-357 -354 -43 0
356 46 -44 0
356 -46 44 0
-356 46 44 0
-356 -46 -44 0
-358 357 0
-358 42 0
-358 41 -44 0
-358 -41 44 0
358 -357 41 44 -42 0
358 -357 -41 -44 -42 0
360 357 -41 0
360 -357 41 0
-360 357 41 0
-360 -357 -41 0
359 44 -42 0
359 -44 42 0
-359 44 42 0
-359 -44 -42 0
-361 360 0
-361 40 0
-361 39 -42 0
-361 -39 42 0
361 -360 39 42 -40 0
361 -360 -39 -42 -40 0
363 360 -39 0
363 -360 39 0
-363 360 39 0
-363 -360 -39 0
362 42 -40 0
362 -42 40 0
-362 42 40 0
-362 -42 -40 0
-364 363 0
-364 38 0
-364 37 -40 0
-364 -37 40 0
364 -363 37 40 -38 0
364 -363 -37 -40 -38 0
366 363 -37 0
366 -363 37 0
-366 363 37 0
-366 -363 -37 0
365 40 -38 0
365 -40 38 0
-365 40 38 0
-365 -40 -38 0
-367 366 0
-367 36 0
-367 35 -38 0
-367 -35 38 0
367 -366 35 38 -36 0
367 -366 -35 -38 -36 0
369 366 -35 0
369 -366 35 0
-369 366 35 0
-369 -366 -35 0
368 38 -36 0
368 -38 36 0
-368 38 36 0
-368 -38 -36 0
-370 369 0
-370 34 0
-370 33 -36 0
-370 -33 36 0
370 -369 33 36 -34 0
370 -369 -33 -36 -34 0
372 369 -33 0
372 -369 33 0
-372 369 33 0
-372 -369 -33 0
371 36 -34 0
371 -36 34 0
-371 36 34 0
-371 -36 -34 0
-373 372 0
-373 32 0
-373 31 -34 0
-373 -31 34 0
373 -372 31 34 -32 0
373 -372 -31 -34 -32 0
375 372 -31 0
375 -372 31 0
-375 372 31 0
-375 -372 -31 0
374 34 -32 0
374 -34 32 0
-374 34 32 0
-374 -34 -32 0
-376 375 0
-376 30 0
-376 29 -32 0
-376 -29 32 0
376 -375 29 32 -30 0
376 -375 -29 -32 -30 0
378 375 -29 0
378 -375 29 0
-378 375 29 0
-378 -375 -29 0
377 32 -30 0
377 -32 30 0
-377 32 30 0
-377 -32 -30 0
-379 378 0
-379 28 0
-379 27 -30 0
-379 -27 30 0
379 -378 27 30 -28 0
379 -378 -27 -30 -28 0
381 378 -27 0
381 -378 27 0
-381 378 27 0
-381 -378 -27 0
380 30 -28 0
380 -30 28 0
-380 30 28 0
-380 -30 -28 0
-382 381 0
-382 26 0
-382 25 -28 0
-382 -25 28 0
382 -381 25 28 -26 0
382 -381 -25 -28 -26 0
384 381 -25 0
384 -381 25 0
-384 381 25 0
-384 -381 -25 0
383 28 -26 0
383 -28 26 0
-383 28 26 0
-383 -28 -26 0
-385 384 0
-385 24 0
-385 23 -26 0
-385 -23 26 0
385 -384 23 26 -24 0
385 -384 -23 -26 -24 0
387 384 -23 0
387 -384 23 0
-387 384 23 0
-387 -384 -23 0
386 26 -24 0
386 -26 24 0
-386 26 24 0
-386 -26 -24 0
-388 387 0
-388 22 0
-388 21 -24 0
-388 -21 24 0
388 -387 21 24 -22 0
388 -387 -21 -24 -22 0
390 387 -21 0
390 -387 21 0
-390 387 21 0
-390 -387 -21 0
389 24 -22 0
389 -24 22 0
-389 24 22 0
-389 -24 -22 0
-391 390 0
-391 20 0
-391 19 -22 0
-391 -19 22 0
391 -390 19 22 -20 0
391 -390 -19 -22 -20 0
393 390 -19 0
393 -390 19 0
-393 390 19 0
-393 -390 -19 0
392 22 -20 0
392 -22 20 0
-392 22 20 0
-392 -22 -20 0
-394 393 0
-394 18 0
-394 17 -20 0
-394 -17 20 0
394 -393 17 20 -18 0
394 -393 -17 -20 -18 0
396 393 -17 0
396 -393 17 0
-396 393 17 0
-396 -393 -17 0
395 20 -18 0
395 -20 18 0
-395 20 18 0
-395 -20 -18 0
-397 396 0
-397 16 0
-397 15 -18 0
-397 -15 18 0
397 -396 15 18 -16 0
397 -396 -15 -18 -16 0
399 396 -15 0
399 -396 15 0
-399 396 15 0
-399 -396 -15 0
398 18 -16 0
398 -18 16 0
-398 18 16 0
-398 -18 -16 0
-400 399 0
-400 14 0
-400 13 -16 0
-400 -13 16 0
400 -399 13 16 -14 0
400 -399 -13 -16 -14 0
402 399 -13 0
402 -399 13 0
-402 399 13 0
-402 -399 -13 0
401 16 -14 0
401 -16 14 0
-401 16 14 0
-401 -16 -14 0
-403 402 0
-403 12 0
-403 11 -14 0
-403 -11 14 0
403 -402 11 14 -12 0
403 -402 -11 -14 -12 0
405 402 -11 0
405 -402 11 0
-405 402 11 0
-405 -402 -11 0
404 14 -12 0
404 -14 12 0
-404 14 12 0
-404 -14 -12 0
-406 405 0
-406 10 0
-406 9 -12 0
-406 -9 12 0
406 -405 9 12 -10 0
406 -405 -9 -12 -10 0
408 405 -9 0
408 -405 9 0
-408 405 9 0
-408 -405 -9 0
407 12 -10 0
407 -12 10 0
-407 12 10 0
-407 -12 -10 0
-409 408 0
-409 8 0
-409 7 -10 0
-409 -7 10 0
409 -408 7 10 -8 0
409 -408 -7 -10 -8 0
411 408 -7 0
411 -408 7 0
-411 408 7 0
-411 -408 -7 0
410 10 -8 0
410 -10 8 0
-410 10 8 0
-410 -10 -8 0
-412 411 0
-412 6 0
-412 5 -8 0
-412 -5 8 0
412 -411 5 8 -6 0
412 -411 -5 -8 -6 0
414 411 -5 0
414 -411 5 0
-414 411 5 0
-414 -411 -5 0
413 8 -6 0
413 -8 6 0
-413 8 6 0
-413 -8 -6 0
-415 414 0
-415 4 0
-415 3 -6 0
-415 -3 6 0
415 -414 3 6 -4 0
415 -414 -3 -6 -4 0
417 414 -3 0
417 -414 3 0
-417 414 3 0
-417 -414 -3 0
416 6 -4 0
416 -6 4 0
-416 6 4 0
-416 -6 -4 0
-418 417 0
-418 2 0
-418 1 -4 0
-418 -1 4 0
418 -417 1 4 -2 0
418 -417 -1 -4 -2 0
420 417 -1 0
420 -417 1 0
-420 417 1 0
-420 -417 -1 0
419 4 -2 0
419 -4 2 0
-419 4 2 0
-419 -4 -2 0
-420 0
-417 0
-419 0
-414 0
-416 0
-411 0
-413 0
-408 0
-410 0
-405 0
-407 0
-402 0
-404 0
-399 0
-401 0
-396 0
-398 0
-393 0
-395 0
-390 0
-392 0
-387 0
-389 0
-384 0
-386 0
-381 0
-383 0
-378 0
-380 0
-375 0
-377 0
-372 0
-374 0
-369 0
-371 0
-366 0
-368 0
-363 0
-365 0
-360 0
-362 0
-357 0
-359 0
-354 0
-356 0
-351 0
-353 0
-348 0
-350 0
-345 0
-347 0
-342 0
-344 0
-339 0
-341 0
-336 0
-338 0
-333 0
-335 0
-330 0
-332 0
-327 0
-329 0
-324 0
-326 0
-321 0
-323 0
-318 0
-320 0
-315 0
-317 0
-312 0
-314 0
-309 0
-311 0
-306 0
-308 0
-303 0
-305 0
-300 0
-302 0
-297 0
-299 0
-294 0
-296 0
-291 0
-293 0
-288 0
-290 0
-285 0
-287 0
-282 0
-284 0
-279 0
-281 0
-276 0
-278 0
-273 0
-275 0
-270 0
-272 0
-267 0
-269 0
-264 0
-266 0
-261 0
-263 0
-258 0
-260 0
-255 0
-257 0
-252 0
-254 0
-249 0
-251 0
-246 0
-248 0
-243 0
-245 0
-240 0
-242 0
-237 0
-239 0
-234 0
-236 0
-231 0
-233 0
-228 0
-230 0
-225 0
-227 0
-222 0
-224 0
-219 0
-221 0
-216 0
-218 0
-213 0
-215 0
-210 0
-212 0
-207 0
-209 0
-204 0
-206 0
-201 0
-203 0
-198 0
-200 0
-195 0
-197 0
-192 0
-194 0
-189 0
-191 0
-186 0
-188 0
-183 0
-185 0
-180 0
-182 0
-177 0
-179 0
-170 0
-176 0
